3622554038439313600507,10,1,2,08,15,1,2,010,5,1,2,08,9,1,2,010,2,1,2,02,11,1,2,01,12,1,2,05,2,1,2,02,15,1,2,03,15,1,2,02,7,1,2,06,4,1,2,014,12,1,2,07,3,1,2,06,8,1,2,06,8,1,2,09,11,1,2,09,15,1,2,08,4,1,2,07,8,1,2,05,7,1,2,06,13,1,2,012,15,1,2,04,3,1,2,014,15,1,2,08,6,1,2,06,13,1,2,07,6,1,2,012,7,1,2,013,1,1,2,014,15,1,2,08,11,1,2,08,6,1,2,02,2,1,2,010,6,1,2,010,2,1,2,011,12,1,2,013,8,1,2,09,13,1,2,013,5,1,2,02,12,1,2,015,1,1,2,08,5,1,2,01,9,1,2,08,4,1,2,013,12,1,2,02,8,1,2,09,7,1,2,06,9,1,2,013,12,1,2,0